data/solutions/recovery/wellformed/intermediate/binding/wellformed_intermediate_instance27/72.sol
Elapsed time: 0.06
Upper bound: 10120.0
Planning weighted value: 37634976.0
C[0]=10120.0
C[1]=10102.0
C[2]=9203.0
C[3]=9061.0
C[4]=8977.0
C[5]=8965.0
C[6]=8959.0
C[7]=8897.0
C[8]=8763.0
C[9]=8194.0
C[10]=8165.0
C[11]=6950.0
y[0]=7
y[1]=7
y[2]=11
y[3]=8
y[4]=0
y[5]=3
y[6]=1
y[7]=8
y[8]=4
y[9]=11
y[10]=3
y[11]=4
y[12]=3
y[13]=6
y[14]=9
y[15]=2
y[16]=1
y[17]=8
y[18]=8
y[19]=2
y[20]=4
y[21]=2
y[22]=9
y[23]=4
y[24]=1
y[25]=9
y[26]=5
y[27]=6
y[28]=6
y[29]=8
y[30]=11
y[31]=1
y[32]=2
y[33]=5
y[34]=5
y[35]=0
y[36]=8
y[37]=8
y[38]=0
y[39]=4
y[40]=1
y[41]=3
y[42]=9
y[43]=7
y[44]=1
y[45]=1
y[46]=11
y[47]=8
y[48]=11
y[49]=4
y[50]=8
y[51]=0
y[52]=2
y[53]=1
y[54]=11
y[55]=7
y[56]=11
y[57]=1
y[58]=3
y[59]=3
y[60]=5
y[61]=5
y[62]=0
y[63]=10
y[64]=3
y[65]=1
y[66]=4
y[67]=6
y[68]=11
y[69]=7
y[70]=1
y[71]=7
y[72]=9
y[73]=0
y[74]=1
y[75]=1
y[76]=10
y[77]=10
y[78]=7
y[79]=0
y[80]=3
y[81]=1
y[82]=9
y[83]=7
y[84]=10
y[85]=9
y[86]=7
y[87]=3
y[88]=1
y[89]=2
y[90]=10
y[91]=1
y[92]=3
y[93]=1
y[94]=10
y[95]=1
y[96]=6
y[97]=11
y[98]=9
y[99]=4
y[100]=1
y[101]=1
y[102]=1
